000 000 000 000 000 000 000 000 000 001 001 001 002 002 003 002 003 004 002 001 001 003 003 002 003 004 004 005 004 004 005
000 000 000 000 000 000 000 000 001 000 001 001 003 001 003 002 003 003 002 001 001 002 003 003 003 003 003 003 003 004 005
000 000 000 000 000 000 000 000 000 000 000 001 002 001 002 002 005 003 002 001 002 002 002 002 002 002 002 003 003 003 004
000 000 000 000 000 000 000 000 000 000 000 001 001 001 002 002 002 002 002 001 002 002 002 002 003 002 002 002 002 002 003
000 000 000 000 000 000 000 000 000 000 000 000 000 000 000 002 001 002 001 001 001 003 002 002 002 002 001 002 001 002 003
000 000 000 000 000 000 000 000 000 000 000 000 000 001 001 001 001 002 001 000 001 001 001 002 002 002 002 002 001 001 002
000 000 000 000 000 000 000 000 000 000 000 000 000 000 000 000 000 001 001 000 001 001 001 002 001 002 002 002 001 001 001
000 000 000 000 000 -99 000 000 000 000 000 000 000 000 000 000 000 000 000 001 001 001 001 001 001 001 001 001 000 000 001
000 000 000 000 000 -99 -99 000 000 000 000 000 000 000 000 000 000 000 000 001 001 001 001 001 001 000 000 000 000 000 000
000 000 000 000 000 000 000 -99 000 000 000 000 000 000 000 000 000 000 000 000 000 000 000 000 000 000 000 000 000 000 000
000 000 000 000 000 000 000 000 000 000 000 000 000 000 000 000 000 000 000 000 000 000 000 000 000 000 000 000 000 000 000
000 000 000 000 000 000 000 000 000 000 000 000 000 000 000 000 000 000 000 000 000 000 000 000 000 -99 000 000 000 000 -99
-99 000 000 000 000 000 000 000 -99 000 000 000 000 000 000 000 000 000 000 000 000 000 -99 000 000 000 000 000 000 000 -99
000 000 000 000 000 000 000 000 -99 -99 -99 000 000 000 000 000 000 000 000 000 -99 000 -99 000 000 000 000 000 000 -99 -99
000 000 000 000 000 000 000 000 -99 -99 -99 000 000 000 -99 000 000 000 000 -99 -99 000 -99 000 000 000 000 000 000 -99 -99
000 -99 000 000 000 000 000 000 000 -99 -99 -99 -99 000 000 000 000 000 000 -99 -99 000 -99 -99 000 000 000 000 000 -99 -99
000 -99 000 -99 000 000 000 000 000 000 -99 -99 -99 000 000 000 000 000 000 -99 -99 -99 000 -99 -99 000 000 000 000 000 -99
000 000 000 -99 -99 000 000 000 000 000 -99 -99 -99 000 000 000 000 000 -99 -99 -99 000 000 -99 -99 000 -99 -99 000 000 -99
000 000 000 -99 -99 -99 -99 000 000 000 -99 -99 -99 -99 000 000 000 000 -99 -99 -99 000 000 -99 -99 -99 -99 -99 -99 000 -99
000 000 000 -99 -99 -99 000 000 000 000 -99 -99 -99 -99 000 000 -99 000 000 -99 -99 000 000 -99 -99 -99 -99 -99 -99 000 -99
000 000 000 000 000 -99 000 000 000 000 000 -99 -99 -99 000 000 000 000 000 -99 -99 000 000 -99 -99 -99 -99 -99 -99 -99 -99
000 000 000 000 000 -99 -99 000 000 000 000 -99 -99 -99 000 000 000 000 000 000 000 000 000 -99 -99 -99 -99 -99 -99 -99 -99
000 000 000 000 000 -99 -99 000 000 000 000 -99 -99 -99 000 000 000 000 000 000 000 000 000 -99 -99 -99 -99 -99 -99 -99 -99
000 000 000 000 000 000 000 000 000 000 000 -99 -99 000 000 000 000 000 000 000 000 000 000 -99 -99 -99 -99 -99 -99 -99 -99
000 000 000 000 000 000 000 000 000 000 -99 -99 -99 000 000 000 000 000 000 000 000 000 000 -99 -99 -99 -99 -99 -99 -99 -99
000 -99 000 000 000 000 000 000 000 -99 -99 -99 -99 000 000 000 000 000 000 000 000 000 000 -99 -99 -99 -99 -99 -99 -99 -99
-99 -99 000 000 000 000 000 000 000 000 000 -99 -99 000 000 -99 000 000 000 000 000 000 000 -99 -99 -99 -99 -99 -99 -99 -99
000 000 000 000 000 000 000 000 000 000 -99 -99 -99 000 000 000 000 000 000 000 000 000 000 -99 -99 -99 -99 -99 -99 -99 -99
000 000 000 000 000 000 000 000 000 000 -99 -99 -99 000 000 000 000 000 000 000 000 000 -99 -99 -99 -99 -99 -99 -99 -99 -99
000 000 000 000 000 000 000 000 000 000 -99 -99 -99 000 000 000 000 000 000 -99 000 000 -99 -99 -99 -99 -99 -99 -99 -99 -99
000 000 000 000 000 000 000 000 000 000 000 -99 -99 000 000 000 -99 -99 000 000 000 000 -99 -99 -99 -99 -99 -99 -99 -99 -99
000 000 000 000 000 000 000 000 000 000 -99 -99 -99 000 000 -99 000 000 000 000 -99 -99 -99 -99 -99 -99 -99 -99 000 -99 -99
000 000 000 000 000 000 000 000 000 000 -99 -99 -99 -99 -99 -99 000 000 000 000 -99 -99 -99 000 000 000 -99 000 000 000 -99
000 000 000 000 000 000 000 000 000 000 000 -99 -99 -99 -99 000 000 000 000 000 -99 -99 -99 000 000 000 000 000 000 000 000
000 000 000 000 000 000 000 000 000 000 000 -99 -99 000 000 -99 000 000 000 000 000 -99 000 000 000 000 000 000 000 000 000
000 000 000 000 000 000 000 000 000 000 000 000 000 000 000 -99 000 000 000 000 000 -99 000 000 000 000 000 000 000 000 000
000 000 000 000 000 000 000 000 000 000 000 000 000 000 000 000 000 000 000 000 000 -99 000 -99 000 000 000 000 000 000 000
000 000 000 000 000 000 000 000 000 000 000 000 000 000 000 000 000 000 000 000 000 000 000 -99 000 000 000 000 000 000 000
000 000 000 000 000 000 000 -99 000 000 -99 -99 000 000 -99 000 000 000 000 000 000 000 -99 -99 000 000 000 000 -99 -99 -99
000 000 000 000 000 000 000 -99 -99 -99 000 000 000 000 000 000 000 000 000 000 000 -99 -99 000 000 000 000 000 -99 000 -99
000 000 000 000 000 000 000 000 -99 000 000 000 000 000 000 000 000 000 000 000 000 -99 000 000 000 000 000 -99 -99 000 -99
000 000 000 000 000 000 000 000 -99 000 000 000 000 000 000 000 000 000 000 000 000 -99 000 000 000 000 -99 -99 000 000 -99
000 000 000 000 000 000 000 000 000 000 000 000 000 000 000 000 000 000 000 000 -99 000 000 000 000 000 -99 -99 -99 -99 -99
000 000 000 000 000 000 000 000 000 000 000 000 000 000 000 000 -99 -99 000 000 000 000 000 000 000 -99 -99 -99 -99 -99 -99
000 000 000 000 000 000 000 000 000 000 000 000 000 000 000 000 000 000 000 000 000 000 000 -99 -99 -99 -99 -99 -99 -99 -99
000 -99 -99 000 000 000 000 000 000 000 000 000 000 000 000 -99 -99 000 000 -99 -99 -99 -99 -99 -99 -99 -99 -99 -99 -99 000
000 -99 -99 -99 -99 000 -99 000 000 000 000 000 000 000 -99 -99 -99 -99 -99 -99 -99 000 -99 -99 -99 -99 -99 -99 -99 -99 -99
-99 -99 -99 -99 -99 -99 -99 000 000 000 000 000 000 000 -99 -99 -99 -99 -99 -99 -99 000 -99 -99 -99 -99 -99 -99 -99 -99 -99
-99 -99 -99 -99 -99 -99 000 000 000 000 000 000 000 000 -99 -99 -99 -99 -99 -99 -99 -99 -99 -99 -99 -99 000 000 -99 -99 -99
-99 -99 -99 -99 -99 -99 000 000 000 000 000 000 -99 000 000 -99 000 -99 000 000 -99 -99 -99 -99 -99 000 000 000 -99 -99 -99
-99 -99 -99 -99 -99 000 000 000 000 000 000 -99 -99 -99 -99 000 000 000 000 000 -99 -99 -99 -99 -99 000 000 -99 -99 -99 -99
-99 -99 -99 -99 -99 000 000 000 000 000 -99 -99 -99 -99 -99 -99 -99 000 000 -99 000 -99 -99 -99 -99 000 -99 -99 -99 -99 -99
-99 -99 -99 -99 000 000 000 000 000 000 -99 -99 -99 -99 -99 -99 -99 000 000 -99 -99 -99 -99 -99 -99 -99 -99 -99 -99 -99 -99
-99 -99 -99 -99 000 000 000 000 000 -99 000 -99 -99 -99 -99 -99 000 000 000 -99 -99 -99 -99 -99 -99 -99 -99 -99 -99 -99 -99
-99 -99 -99 -99 -99 -99 000 000 000 000 -99 -99 -99 -99 -99 -99 -99 000 -99 -99 -99 -99 -99 -99 -99 -99 -99 -99 -99 -99 -99
